(set-info :source |printed by MathSAT|)
(declare-fun call_mesi.ite31 () Int)
(declare-fun call_mesi.ite17 () Int)
(declare-fun env () Bool)
(declare-fun call_mesi.ite12 () Int)
(declare-fun call_mesi.ite6 () Int)
(declare-fun invalid_me () Int)
(declare-fun call_mesi.flby3 () Int)
(declare-fun call_mesi.ite3 () Int)
(declare-fun call_mesi.exclusive_me () Int)
(declare-fun modified_me () Int)
(declare-fun call_mesi.modified_me () Int)
(declare-fun param_etat_me1 () Bool)
(declare-fun call_mesi.ite9 () Int)
(declare-fun call_mesi.ite4 () Int)
(declare-fun param_etat_me4 () Bool)
(declare-fun call_mesi.ite29 () Int)
(declare-fun call_mesi.ite25 () Int)
(declare-fun call_mesi.ite26 () Int)
(declare-fun param_etat_me3 () Bool)
(declare-fun call_mesi.ite2 () Int)
(declare-fun call_mesi.garde_me1 () Bool)
(declare-fun call_mesi.invalid_me () Int)
(declare-fun call_mesi.ite15 () Int)
(declare-fun call_mesi.ite28 () Int)
(declare-fun call_mesi.ite21 () Int)
(declare-fun call_Sofar.flby () Bool)
(declare-fun call_mesi.ite13 () Int)
(declare-fun call_mesi.ite7 () Int)
(declare-fun call_mesi.ite18 () Int)
(declare-fun call_mesi.ite24 () Int)
(declare-fun call_Sofar.Sofar () Bool)
(declare-fun call_mesi.ite5 () Int)
(declare-fun call_mesi.flby2 () Int)
(declare-fun call_mesi.ite22 () Int)
(declare-fun call_mesi.ite16 () Int)
(declare-fun param_etat_me2 () Bool)
(declare-fun call_mesi.flby () Int)
(declare-fun call_mesi.garde_me3 () Bool)
(declare-fun call_mesi.shared_me () Int)
(declare-fun call_mesi.ite23 () Int)
(declare-fun call_mesi.ite10 () Int)
(declare-fun _OK_ () Bool)
(declare-fun call_mesi.ite11 () Int)
(declare-fun call_mesi.ite14 () Int)
(declare-fun call_mesi.garde_me4 () Bool)
(declare-fun exclusive_me () Int)
(declare-fun call_mesi.ite () Int)
(declare-fun shared_me () Int)
(declare-fun call_mesi.ite27 () Int)
(declare-fun call_mesi.ite32 () Int)
(declare-fun call_mesi.ite19 () Int)
(declare-fun call_excludes4.excludes () Bool)
(declare-fun call_mesi.ite20 () Int)
(declare-fun call_mesi.flby4 () Int)
(declare-fun call_mesi.ite30 () Int)
(declare-fun call_mesi.ite8 () Int)
(define-fun .def_807 () Bool (= call_Sofar.flby call_Sofar.Sofar))
(define-fun .def_802 () Bool (and param_etat_me4 param_etat_me3))
(define-fun .def_797 () Bool (or param_etat_me1 param_etat_me2))
(define-fun .def_796 () Bool (and param_etat_me3 param_etat_me1))
(define-fun .def_798 () Bool (or .def_796 .def_797))
(define-fun .def_795 () Bool (and param_etat_me4 param_etat_me1))
(define-fun .def_799 () Bool (or .def_795 .def_798))
(define-fun .def_794 () Bool (and param_etat_me3 param_etat_me2))
(define-fun .def_800 () Bool (or .def_794 .def_799))
(define-fun .def_793 () Bool (and param_etat_me4 param_etat_me2))
(define-fun .def_801 () Bool (or .def_793 .def_800))
(define-fun .def_803 () Bool (or .def_801 .def_802))
(define-fun .def_804 () Bool (not .def_803))
(define-fun .def_805 () Bool (= call_excludes4.excludes .def_804))
(define-fun .def_791 () Bool (= call_mesi.flby4 call_mesi.invalid_me))
(define-fun .def_789 () Bool (= call_mesi.flby3 call_mesi.shared_me))
(define-fun .def_787 () Bool (= call_mesi.flby2 call_mesi.exclusive_me))
(define-fun .def_785 () Bool (= call_mesi.flby call_mesi.modified_me))
(define-fun .def_781 () Bool (= call_mesi.ite30 call_mesi.ite31))
(define-fun .def_782 () Bool (or param_etat_me2 .def_781))
(define-fun .def_778 () Bool (= call_mesi.ite31 call_mesi.ite26))
(define-fun .def_760 () Bool (not param_etat_me2))
(define-fun .def_779 () Bool (or .def_760 .def_778))
(define-fun .def_774 () Bool (= call_mesi.ite22 call_mesi.ite23))
(define-fun .def_775 () Bool (or param_etat_me2 .def_774))
(define-fun .def_771 () Bool (= call_mesi.ite23 call_mesi.ite18))
(define-fun .def_772 () Bool (or .def_760 .def_771))
(define-fun .def_767 () Bool (= call_mesi.ite14 call_mesi.ite15))
(define-fun .def_768 () Bool (or param_etat_me2 .def_767))
(define-fun .def_764 () Bool (= call_mesi.ite15 call_mesi.ite10))
(define-fun .def_765 () Bool (or .def_760 .def_764))
(define-fun .def_759 () Bool (= call_mesi.ite7 call_mesi.ite2))
(define-fun .def_761 () Bool (or .def_759 .def_760))
(define-fun .def_755 () Bool (= call_mesi.ite6 call_mesi.ite7))
(define-fun .def_757 () Bool (or .def_755 param_etat_me2))
(define-fun .def_762 () Bool (and .def_757 .def_761))
(define-fun .def_766 () Bool (and .def_762 .def_765))
(define-fun .def_769 () Bool (and .def_766 .def_768))
(define-fun .def_773 () Bool (and .def_769 .def_772))
(define-fun .def_776 () Bool (and .def_773 .def_775))
(define-fun .def_780 () Bool (and .def_776 .def_779))
(define-fun .def_783 () Bool (and .def_780 .def_782))
(define-fun .def_751 () Bool (= call_mesi.ite32 call_mesi.ite31))
(define-fun .def_752 () Bool (or param_etat_me1 .def_751))
(define-fun .def_747 () Bool (= call_mesi.ite25 call_mesi.ite32))
(define-fun .def_725 () Bool (not param_etat_me1))
(define-fun .def_748 () Bool (or .def_725 .def_747))
(define-fun .def_742 () Bool (= call_mesi.ite24 call_mesi.ite23))
(define-fun .def_743 () Bool (or param_etat_me1 .def_742))
(define-fun .def_738 () Bool (= call_mesi.ite17 call_mesi.ite24))
(define-fun .def_739 () Bool (or .def_725 .def_738))
(define-fun .def_733 () Bool (= call_mesi.ite16 call_mesi.ite15))
(define-fun .def_734 () Bool (or param_etat_me1 .def_733))
(define-fun .def_729 () Bool (= call_mesi.ite9 call_mesi.ite16))
(define-fun .def_730 () Bool (or .def_725 .def_729))
(define-fun .def_724 () Bool (= call_mesi.ite call_mesi.ite8))
(define-fun .def_726 () Bool (or .def_724 .def_725))
(define-fun .def_721 () Bool (= call_mesi.ite8 call_mesi.ite7))
(define-fun .def_723 () Bool (or .def_721 param_etat_me1))
(define-fun .def_727 () Bool (and .def_723 .def_726))
(define-fun .def_731 () Bool (and .def_727 .def_730))
(define-fun .def_735 () Bool (and .def_731 .def_734))
(define-fun .def_740 () Bool (and .def_735 .def_739))
(define-fun .def_744 () Bool (and .def_740 .def_743))
(define-fun .def_749 () Bool (and .def_744 .def_748))
(define-fun .def_753 () Bool (and .def_749 .def_752))
(define-fun .def_717 () Bool (= env call_Sofar.Sofar))
(define-fun .def_714 () Bool (= invalid_me call_mesi.invalid_me))
(define-fun .def_710 () Bool (= shared_me call_mesi.shared_me))
(define-fun .def_707 () Bool (= exclusive_me call_mesi.exclusive_me))
(define-fun .def_703 () Bool (= modified_me call_mesi.modified_me))
(define-fun .def_698 () Bool (= call_mesi.ite29 call_mesi.ite30))
(define-fun .def_699 () Bool (or param_etat_me3 .def_698))
(define-fun .def_695 () Bool (= call_mesi.ite27 call_mesi.ite30))
(define-fun .def_676 () Bool (not param_etat_me3))
(define-fun .def_696 () Bool (or .def_676 .def_695))
(define-fun .def_690 () Bool (= call_mesi.ite21 call_mesi.ite22))
(define-fun .def_691 () Bool (or param_etat_me3 .def_690))
(define-fun .def_687 () Bool (= call_mesi.ite19 call_mesi.ite22))
(define-fun .def_688 () Bool (or .def_676 .def_687))
(define-fun .def_683 () Bool (= call_mesi.ite13 call_mesi.ite14))
(define-fun .def_684 () Bool (or param_etat_me3 .def_683))
(define-fun .def_680 () Bool (= call_mesi.ite11 call_mesi.ite14))
(define-fun .def_681 () Bool (or .def_676 .def_680))
(define-fun .def_675 () Bool (= call_mesi.ite3 call_mesi.ite6))
(define-fun .def_677 () Bool (or .def_675 .def_676))
(define-fun .def_672 () Bool (= call_mesi.ite5 call_mesi.ite6))
(define-fun .def_674 () Bool (or .def_672 param_etat_me3))
(define-fun .def_678 () Bool (and .def_674 .def_677))
(define-fun .def_682 () Bool (and .def_678 .def_681))
(define-fun .def_685 () Bool (and .def_682 .def_684))
(define-fun .def_689 () Bool (and .def_685 .def_688))
(define-fun .def_692 () Bool (and .def_689 .def_691))
(define-fun .def_697 () Bool (and .def_692 .def_696))
(define-fun .def_700 () Bool (and .def_697 .def_699))
(define-fun .def_667 () Bool (<= shared_me 1))
(define-fun .def_665 () Bool (<= modified_me 1))
(define-fun .def_668 () Bool (or .def_665 .def_667))
(define-fun .def_664 () Bool (not env))
(define-fun .def_669 () Bool (or .def_664 .def_668))
(define-fun .def_670 () Bool (= _OK_ .def_669))
(define-fun .def_701 () Bool (and .def_670 .def_700))
(define-fun .def_704 () Bool (and .def_701 .def_703))
(define-fun .def_708 () Bool (and .def_704 .def_707))
(define-fun .def_711 () Bool (and .def_708 .def_710))
(define-fun .def_715 () Bool (and .def_711 .def_714))
(define-fun .def_718 () Bool (and .def_715 .def_717))
(define-fun .def_754 () Bool (and .def_718 .def_753))
(define-fun .def_784 () Bool (and .def_754 .def_783))
(define-fun .def_786 () Bool (and .def_784 .def_785))
(define-fun .def_788 () Bool (and .def_786 .def_787))
(define-fun .def_790 () Bool (and .def_788 .def_789))
(define-fun .def_792 () Bool (and .def_790 .def_791))
(define-fun .def_806 () Bool (and .def_792 .def_805))
(define-fun .def_808 () Bool (and .def_806 .def_807))
(define-fun .def_656 () Bool (<= 0 modified_me))
(define-fun .def_658 () Bool (and .def_656 call_excludes4.excludes))
(define-fun .def_660 () Bool (= .def_658 call_Sofar.flby))
(define-fun .def_653 () Bool (= call_mesi.flby4 3))
(define-fun .def_650 () Bool (= call_mesi.flby3 0))
(define-fun .def_647 () Bool (= call_mesi.flby2 0))
(define-fun .def_644 () Bool (= call_mesi.flby 0))
(define-fun .def_639 () Bool (= call_mesi.ite20 0))
(define-fun .def_634 () Bool (not call_mesi.garde_me4))
(define-fun .def_640 () Bool (or .def_634 .def_639))
(define-fun .def_636 () Bool (= call_mesi.ite4 0))
(define-fun .def_637 () Bool (or .def_634 .def_636))
(define-fun .def_632 () Bool (= call_mesi.ite12 1))
(define-fun .def_635 () Bool (or .def_632 .def_634))
(define-fun .def_638 () Bool (and .def_635 .def_637))
(define-fun .def_641 () Bool (and .def_638 .def_640))
(define-fun .def_628 () Bool (= call_mesi.ite19 0))
(define-fun .def_621 () Bool (not call_mesi.garde_me3))
(define-fun .def_629 () Bool (or .def_621 .def_628))
(define-fun .def_624 () Bool (= call_mesi.ite3 0))
(define-fun .def_625 () Bool (or .def_621 .def_624))
(define-fun .def_619 () Bool (= call_mesi.ite11 1))
(define-fun .def_622 () Bool (or .def_619 .def_621))
(define-fun .def_626 () Bool (and .def_622 .def_625))
(define-fun .def_630 () Bool (and .def_626 .def_629))
(define-fun .def_614 () Bool (= call_mesi.ite 0))
(define-fun .def_611 () Bool (not call_mesi.garde_me1))
(define-fun .def_615 () Bool (or .def_611 .def_614))
(define-fun .def_609 () Bool (= call_mesi.ite9 0))
(define-fun .def_612 () Bool (or .def_609 .def_611))
(define-fun .def_616 () Bool (and .def_612 .def_615))
(define-fun .def_605 () Bool (= call_mesi.ite28 call_mesi.ite29))
(define-fun .def_591 () Bool (not param_etat_me4))
(define-fun .def_606 () Bool (or .def_591 .def_605))
(define-fun .def_600 () Bool (= call_mesi.ite20 call_mesi.ite21))
(define-fun .def_601 () Bool (or .def_591 .def_600))
(define-fun .def_595 () Bool (= call_mesi.ite4 call_mesi.ite5))
(define-fun .def_596 () Bool (or .def_591 .def_595))
(define-fun .def_589 () Bool (= call_mesi.ite12 call_mesi.ite13))
(define-fun .def_592 () Bool (or .def_589 .def_591))
(define-fun .def_597 () Bool (and .def_592 .def_596))
(define-fun .def_602 () Bool (and .def_597 .def_601))
(define-fun .def_607 () Bool (and .def_602 .def_606))
(define-fun .def_617 () Bool (and .def_607 .def_616))
(define-fun .def_631 () Bool (and .def_617 .def_630))
(define-fun .def_642 () Bool (and .def_631 .def_641))
(define-fun .def_645 () Bool (and .def_642 .def_644))
(define-fun .def_648 () Bool (and .def_645 .def_647))
(define-fun .def_651 () Bool (and .def_648 .def_650))
(define-fun .def_654 () Bool (and .def_651 .def_653))
(define-fun .def_661 () Bool (and .def_654 .def_660))
(define-fun .def_809 () Bool (and .def_661 .def_808))
(assert .def_809)
